Route #1: 26 39 36 5 34 60 58 18 51 59 27 56
Route #2: 29 3 14 19 32 47 45 10 28 4 24 55 42 43 25 40 46 22 12 50
Route #3: 16 41 30 9 7 33 62 44
Route #4: 11 52
Route #5: 37 23 17 53 38
Route #6: 54 49 15 31 35 61 20 6 2 48
Route #7: 8 57 13
Route #8: 1 21
cost 2402.574920485171
